Maximize
  - 1.0505184454918 edge_0_1_0_0 - 1.5280548064048 edge_0_2_0_0
   - 1.6912240524576 edge_0_3_0_0 - 0.6930408022999999 edge_0_6_0_0
   - 0.0858276 edge_0_8_0_0 - 1.2836883426385 edge_0_11_0_0
   + 0.1565722867395639 edge_1_2_0_0 - 0.2564521840878695 edge_1_3_0_0
   + 0.0196825862241236 edge_1_4_0_0 + 0.1425004806561358 edge_1_6_0_0
   - 0.2059791092787656 edge_1_8_0_0 - 0.0262489676518936 edge_1_11_0_0
   - 0.3436317537578533 edge_1_13_0_0 + 0.8729273315120472 edge_1_15_0_0
   + 0.126406760861965 edge_2_1_0_0 + 0.8575393638401295 edge_2_3_0_0
   + 0.5912725915356273 edge_2_4_0_0 + 0.4084206440918307 edge_2_5_0_0
   + 0.1751969920378177 edge_2_6_0_0 - 0.0118193376839182 edge_2_11_0_0
   + 0.2589167188636978 edge_2_15_0_0 - 0.1055117514598244 edge_3_1_0_0
   + 3.54281669513774 edge_3_2_0_0 + 1.929147687168598 edge_3_4_0_0
   + 0.8050181328481758 edge_3_5_0_0 + 0.0089185327065611 edge_3_6_0_0
   + 0.0890047517919108 edge_3_7_0_0 + 0.51083710094968 edge_3_8_0_0
   - 0.1150115714744659 edge_3_9_0_0 - 0.7351881375558766 edge_3_10_0_0
   + 0.1466715762800386 edge_3_11_0_0 - 0.2852314866788928 edge_3_13_0_0
   - 0.8763491557345996 edge_3_14_0_0 + 1.693175870932009 edge_3_15_0_0
   - 1.091966110407792 edge_4_2_0_0 - 0.5428552113412902 edge_4_3_0_0
   - 0.6432958902461025 edge_4_8_0_0 - 0.0178119680653818 edge_5_6_0_0
   - 0.4541391138930183 edge_5_7_0_0 - 0.52529099150592 edge_5_8_0_0
   + 0.2459727962093614 edge_6_1_0_0 + 0.3784030361097357 edge_6_2_0_0
   + 0.3140623990356675 edge_6_3_0_0 + 0.3472400027575056 edge_6_4_0_0
   - 0.2697581196112194 edge_6_5_0_0 - 0.5938533158379469 edge_6_7_0_0
   - 0.1249929480665999 edge_6_8_0_0 + 0.1899583684469634 edge_6_11_0_0
   - 0.3207157714556921 edge_6_13_0_0 + 0.8498061811618388 edge_6_15_0_0
   - 0.088190004829551 edge_7_5_0_0 + 0.1873455231685356 edge_7_6_0_0
   + 0.83899987452225 edge_7_8_0_0 - 0.0797097955089314 edge_7_9_0_0
   + 0.41628352499078 edge_8_2_0_0 + 1.1552917816836 edge_8_3_0_0
   + 0.7690645965134999 edge_8_4_0_0 + 1.2446510074392 edge_8_5_0_0
   + 2.6828508368046 edge_8_6_0_0 + 1.8554952015675 edge_8_7_0_0
   + 3.3201708583955 edge_8_9_0_0 + 0.15029305052 edge_8_10_0_0
   - 0.41064268962756 edge_8_11_0_0 + 0.5082819648216 edge_8_13_0_0
   + 1.1550292537728 edge_8_14_0_0 + 2.127989923983 edge_8_15_0_0
   + 0.153216696730059 edge_9_7_0_0 + 0.3650259203497282 edge_9_10_0_0
   + 0.365610037657327 edge_9_13_0_0 + 0.2974365214026633 edge_9_14_0_0
   + 0.7281325183852964 edge_9_15_0_0 + 0.4085932508331229 edge_10_13_0_0
   - 0.0596521964998879 edge_11_1_0_0 + 0.0263688963296472 edge_11_2_0_0
   + 0.3976910108844941 edge_11_3_0_0 + 0.211493022054684 edge_11_4_0_0
   - 0.00363267171490345 edge_11_6_0_0 + 0.6343984370121819 edge_11_8_0_0
   - 0.1567691985283729 edge_11_13_0_0 - 0.303178830533567 edge_13_6_0_0
   + 0.00854833158694899 edge_13_9_0_0 + 1.040634079800504 edge_13_10_0_0
   + 0.4834480458376011 edge_13_14_0_0 + 0.7111546939496308 edge_13_15_0_0
   - 1.325704088276069 edge_14_2_0_0 - 0.6037052785893994 edge_14_5_0_0
   - 0.2477333298131605 edge_14_6_0_0 - 0.8077930145824479 edge_14_7_0_0
   - 0.1246311912967483 edge_14_9_0_0 + 0.8786161992764263 edge_14_10_0_0
   - 2.491287419866675 edge_14_11_0_0 + 1.212141828816397 edge_14_13_0_0
   + 2.15319321232839 edge_14_15_0_0 - 1.00527664567645 edge_15_13_0_0
   - 1.257126429978378 edge_15_14_0_0
Subject To
 one_parent_1: edge_0_1_0_0 + edge_2_1_0_0 + edge_3_1_0_0 + edge_6_1_0_0
   + edge_11_1_0_0 = 1
 consume_one_flow_unit_1: flow_0_1_0_0 - flow_1_2_0_0 - flow_1_3_0_0
   - flow_1_4_0_0 - flow_1_6_0_0 - flow_1_8_0_0 - flow_1_11_0_0
   - flow_1_13_0_0 - flow_1_15_0_0 + flow_2_1_0_0 + flow_3_1_0_0
   + flow_6_1_0_0 + flow_11_1_0_0 = 1
 one_parent_2: edge_0_2_0_0 + edge_1_2_0_0 + edge_3_2_0_0 + edge_4_2_0_0
   + edge_6_2_0_0 + edge_8_2_0_0 + edge_11_2_0_0 + edge_14_2_0_0 = 1
 consume_one_flow_unit_2: flow_0_2_0_0 + flow_1_2_0_0 - flow_2_1_0_0
   - flow_2_3_0_0 - flow_2_4_0_0 - flow_2_5_0_0 - flow_2_6_0_0
   - flow_2_11_0_0 - flow_2_15_0_0 + flow_3_2_0_0 + flow_4_2_0_0
   + flow_6_2_0_0 + flow_8_2_0_0 + flow_11_2_0_0 + flow_14_2_0_0 = 1
 one_parent_3: edge_0_3_0_0 + edge_1_3_0_0 + edge_2_3_0_0 + edge_4_3_0_0
   + edge_6_3_0_0 + edge_8_3_0_0 + edge_11_3_0_0 = 1
 consume_one_flow_unit_3: flow_0_3_0_0 + flow_1_3_0_0 + flow_2_3_0_0
   - flow_3_1_0_0 - flow_3_2_0_0 - flow_3_4_0_0 - flow_3_5_0_0
   - flow_3_6_0_0 - flow_3_7_0_0 - flow_3_8_0_0 - flow_3_9_0_0
   - flow_3_10_0_0 - flow_3_11_0_0 - flow_3_13_0_0 - flow_3_14_0_0
   - flow_3_15_0_0 + flow_4_3_0_0 + flow_6_3_0_0 + flow_8_3_0_0
   + flow_11_3_0_0 = 1
 one_parent_4: edge_1_4_0_0 + edge_2_4_0_0 + edge_3_4_0_0 + edge_6_4_0_0
   + edge_8_4_0_0 + edge_11_4_0_0 = 1
 consume_one_flow_unit_4: flow_1_4_0_0 + flow_2_4_0_0 + flow_3_4_0_0
   - flow_4_2_0_0 - flow_4_3_0_0 - flow_4_8_0_0 + flow_6_4_0_0
   + flow_8_4_0_0 + flow_11_4_0_0 = 1
 one_parent_5: edge_2_5_0_0 + edge_3_5_0_0 + edge_6_5_0_0 + edge_7_5_0_0
   + edge_8_5_0_0 + edge_14_5_0_0 = 1
 consume_one_flow_unit_5: flow_2_5_0_0 + flow_3_5_0_0 - flow_5_6_0_0
   - flow_5_7_0_0 - flow_5_8_0_0 + flow_6_5_0_0 + flow_7_5_0_0
   + flow_8_5_0_0 + flow_14_5_0_0 = 1
 one_parent_6: edge_0_6_0_0 + edge_1_6_0_0 + edge_2_6_0_0 + edge_3_6_0_0
   + edge_5_6_0_0 + edge_7_6_0_0 + edge_8_6_0_0 + edge_11_6_0_0
   + edge_13_6_0_0 + edge_14_6_0_0 = 1
 consume_one_flow_unit_6: flow_0_6_0_0 + flow_1_6_0_0 + flow_2_6_0_0
   + flow_3_6_0_0 + flow_5_6_0_0 - flow_6_1_0_0 - flow_6_2_0_0
   - flow_6_3_0_0 - flow_6_4_0_0 - flow_6_5_0_0 - flow_6_7_0_0
   - flow_6_8_0_0 - flow_6_11_0_0 - flow_6_13_0_0 - flow_6_15_0_0
   + flow_7_6_0_0 + flow_8_6_0_0 + flow_11_6_0_0 + flow_13_6_0_0
   + flow_14_6_0_0 = 1
 one_parent_7: edge_3_7_0_0 + edge_5_7_0_0 + edge_6_7_0_0 + edge_8_7_0_0
   + edge_9_7_0_0 + edge_14_7_0_0 = 1
 consume_one_flow_unit_7: flow_3_7_0_0 + flow_5_7_0_0 + flow_6_7_0_0
   - flow_7_5_0_0 - flow_7_6_0_0 - flow_7_8_0_0 - flow_7_9_0_0
   + flow_8_7_0_0 + flow_9_7_0_0 + flow_14_7_0_0 = 1
 one_parent_8: edge_0_8_0_0 + edge_1_8_0_0 + edge_3_8_0_0 + edge_4_8_0_0
   + edge_5_8_0_0 + edge_6_8_0_0 + edge_7_8_0_0 + edge_11_8_0_0 = 1
 consume_one_flow_unit_8: flow_0_8_0_0 + flow_1_8_0_0 + flow_3_8_0_0
   + flow_4_8_0_0 + flow_5_8_0_0 + flow_6_8_0_0 + flow_7_8_0_0
   - flow_8_2_0_0 - flow_8_3_0_0 - flow_8_4_0_0 - flow_8_5_0_0
   - flow_8_6_0_0 - flow_8_7_0_0 - flow_8_9_0_0 - flow_8_10_0_0
   - flow_8_11_0_0 - flow_8_13_0_0 - flow_8_14_0_0 - flow_8_15_0_0
   + flow_11_8_0_0 = 1
 one_parent_9: edge_3_9_0_0 + edge_7_9_0_0 + edge_8_9_0_0 + edge_13_9_0_0
   + edge_14_9_0_0 = 1
 consume_one_flow_unit_9: flow_3_9_0_0 + flow_7_9_0_0 + flow_8_9_0_0
   - flow_9_7_0_0 - flow_9_10_0_0 - flow_9_13_0_0 - flow_9_14_0_0
   - flow_9_15_0_0 + flow_13_9_0_0 + flow_14_9_0_0 = 1
 one_parent_10: edge_3_10_0_0 + edge_8_10_0_0 + edge_9_10_0_0
   + edge_13_10_0_0 + edge_14_10_0_0 = 1
 consume_one_flow_unit_10: flow_3_10_0_0 + flow_8_10_0_0 + flow_9_10_0_0
   - flow_10_13_0_0 + flow_13_10_0_0 + flow_14_10_0_0 = 1
 one_parent_11: edge_0_11_0_0 + edge_1_11_0_0 + edge_2_11_0_0
   + edge_3_11_0_0 + edge_6_11_0_0 + edge_8_11_0_0 + edge_14_11_0_0 = 1
 consume_one_flow_unit_11: flow_0_11_0_0 + flow_1_11_0_0 + flow_2_11_0_0
   + flow_3_11_0_0 + flow_6_11_0_0 + flow_8_11_0_0 - flow_11_1_0_0
   - flow_11_2_0_0 - flow_11_3_0_0 - flow_11_4_0_0 - flow_11_6_0_0
   - flow_11_8_0_0 - flow_11_13_0_0 + flow_14_11_0_0 = 1
 one_parent_12: = 1
 consume_one_flow_unit_12: = 1
 one_parent_13: edge_1_13_0_0 + edge_3_13_0_0 + edge_6_13_0_0
   + edge_8_13_0_0 + edge_9_13_0_0 + edge_10_13_0_0 + edge_11_13_0_0
   + edge_14_13_0_0 + edge_15_13_0_0 = 1
 consume_one_flow_unit_13: flow_1_13_0_0 + flow_3_13_0_0 + flow_6_13_0_0
   + flow_8_13_0_0 + flow_9_13_0_0 + flow_10_13_0_0 + flow_11_13_0_0
   - flow_13_6_0_0 - flow_13_9_0_0 - flow_13_10_0_0 - flow_13_14_0_0
   - flow_13_15_0_0 + flow_14_13_0_0 + flow_15_13_0_0 = 1
 one_parent_14: edge_3_14_0_0 + edge_8_14_0_0 + edge_9_14_0_0
   + edge_13_14_0_0 + edge_15_14_0_0 = 1
 consume_one_flow_unit_14: flow_3_14_0_0 + flow_8_14_0_0 + flow_9_14_0_0
   + flow_13_14_0_0 - flow_14_2_0_0 - flow_14_5_0_0 - flow_14_6_0_0
   - flow_14_7_0_0 - flow_14_9_0_0 - flow_14_10_0_0 - flow_14_11_0_0
   - flow_14_13_0_0 - flow_14_15_0_0 + flow_15_14_0_0 = 1
 one_parent_15: edge_1_15_0_0 + edge_2_15_0_0 + edge_3_15_0_0
   + edge_6_15_0_0 + edge_8_15_0_0 + edge_9_15_0_0 + edge_13_15_0_0
   + edge_14_15_0_0 = 1
 consume_one_flow_unit_15: flow_1_15_0_0 + flow_2_15_0_0 + flow_3_15_0_0
   + flow_6_15_0_0 + flow_8_15_0_0 + flow_9_15_0_0 + flow_13_15_0_0
   + flow_14_15_0_0 - flow_15_13_0_0 - flow_15_14_0_0 = 1
 root_flow: flow_0_1_0_0 + flow_0_2_0_0 + flow_0_3_0_0 + flow_0_6_0_0
   + flow_0_8_0_0 + flow_0_11_0_0 = 15
 inactive_no_flow_0_1_0_0: flow_0_1_0_0 - 1000 edge_0_1_0_0 <= 0
 inactive_no_flow_0_2_0_0: flow_0_2_0_0 - 1000 edge_0_2_0_0 <= 0
 inactive_no_flow_0_3_0_0: flow_0_3_0_0 - 1000 edge_0_3_0_0 <= 0
 inactive_no_flow_0_6_0_0: flow_0_6_0_0 - 1000 edge_0_6_0_0 <= 0
 inactive_no_flow_0_8_0_0: flow_0_8_0_0 - 1000 edge_0_8_0_0 <= 0
 inactive_no_flow_0_11_0_0: flow_0_11_0_0 - 1000 edge_0_11_0_0 <= 0
 inactive_no_flow_1_2_0_0: flow_1_2_0_0 - 1000 edge_1_2_0_0 <= 0
 inactive_no_flow_1_3_0_0: flow_1_3_0_0 - 1000 edge_1_3_0_0 <= 0
 inactive_no_flow_1_4_0_0: flow_1_4_0_0 - 1000 edge_1_4_0_0 <= 0
 inactive_no_flow_1_6_0_0: flow_1_6_0_0 - 1000 edge_1_6_0_0 <= 0
 inactive_no_flow_1_8_0_0: flow_1_8_0_0 - 1000 edge_1_8_0_0 <= 0
 inactive_no_flow_1_11_0_0: flow_1_11_0_0 - 1000 edge_1_11_0_0 <= 0
 inactive_no_flow_1_13_0_0: flow_1_13_0_0 - 1000 edge_1_13_0_0 <= 0
 inactive_no_flow_1_15_0_0: flow_1_15_0_0 - 1000 edge_1_15_0_0 <= 0
 inactive_no_flow_2_1_0_0: flow_2_1_0_0 - 1000 edge_2_1_0_0 <= 0
 inactive_no_flow_2_3_0_0: flow_2_3_0_0 - 1000 edge_2_3_0_0 <= 0
 inactive_no_flow_2_4_0_0: flow_2_4_0_0 - 1000 edge_2_4_0_0 <= 0
 inactive_no_flow_2_5_0_0: flow_2_5_0_0 - 1000 edge_2_5_0_0 <= 0
 inactive_no_flow_2_6_0_0: flow_2_6_0_0 - 1000 edge_2_6_0_0 <= 0
 inactive_no_flow_2_11_0_0: flow_2_11_0_0 - 1000 edge_2_11_0_0 <= 0
 inactive_no_flow_2_15_0_0: flow_2_15_0_0 - 1000 edge_2_15_0_0 <= 0
 inactive_no_flow_3_1_0_0: flow_3_1_0_0 - 1000 edge_3_1_0_0 <= 0
 inactive_no_flow_3_2_0_0: flow_3_2_0_0 - 1000 edge_3_2_0_0 <= 0
 inactive_no_flow_3_4_0_0: flow_3_4_0_0 - 1000 edge_3_4_0_0 <= 0
 inactive_no_flow_3_5_0_0: flow_3_5_0_0 - 1000 edge_3_5_0_0 <= 0
 inactive_no_flow_3_6_0_0: flow_3_6_0_0 - 1000 edge_3_6_0_0 <= 0
 inactive_no_flow_3_7_0_0: flow_3_7_0_0 - 1000 edge_3_7_0_0 <= 0
 inactive_no_flow_3_8_0_0: flow_3_8_0_0 - 1000 edge_3_8_0_0 <= 0
 inactive_no_flow_3_9_0_0: flow_3_9_0_0 - 1000 edge_3_9_0_0 <= 0
 inactive_no_flow_3_10_0_0: flow_3_10_0_0 - 1000 edge_3_10_0_0 <= 0
 inactive_no_flow_3_11_0_0: flow_3_11_0_0 - 1000 edge_3_11_0_0 <= 0
 inactive_no_flow_3_13_0_0: flow_3_13_0_0 - 1000 edge_3_13_0_0 <= 0
 inactive_no_flow_3_14_0_0: flow_3_14_0_0 - 1000 edge_3_14_0_0 <= 0
 inactive_no_flow_3_15_0_0: flow_3_15_0_0 - 1000 edge_3_15_0_0 <= 0
 inactive_no_flow_4_2_0_0: flow_4_2_0_0 - 1000 edge_4_2_0_0 <= 0
 inactive_no_flow_4_3_0_0: flow_4_3_0_0 - 1000 edge_4_3_0_0 <= 0
 inactive_no_flow_4_8_0_0: flow_4_8_0_0 - 1000 edge_4_8_0_0 <= 0
 inactive_no_flow_5_6_0_0: flow_5_6_0_0 - 1000 edge_5_6_0_0 <= 0
 inactive_no_flow_5_7_0_0: flow_5_7_0_0 - 1000 edge_5_7_0_0 <= 0
 inactive_no_flow_5_8_0_0: flow_5_8_0_0 - 1000 edge_5_8_0_0 <= 0
 inactive_no_flow_6_1_0_0: flow_6_1_0_0 - 1000 edge_6_1_0_0 <= 0
 inactive_no_flow_6_2_0_0: flow_6_2_0_0 - 1000 edge_6_2_0_0 <= 0
 inactive_no_flow_6_3_0_0: flow_6_3_0_0 - 1000 edge_6_3_0_0 <= 0
 inactive_no_flow_6_4_0_0: flow_6_4_0_0 - 1000 edge_6_4_0_0 <= 0
 inactive_no_flow_6_5_0_0: flow_6_5_0_0 - 1000 edge_6_5_0_0 <= 0
 inactive_no_flow_6_7_0_0: flow_6_7_0_0 - 1000 edge_6_7_0_0 <= 0
 inactive_no_flow_6_8_0_0: flow_6_8_0_0 - 1000 edge_6_8_0_0 <= 0
 inactive_no_flow_6_11_0_0: flow_6_11_0_0 - 1000 edge_6_11_0_0 <= 0
 inactive_no_flow_6_13_0_0: flow_6_13_0_0 - 1000 edge_6_13_0_0 <= 0
 inactive_no_flow_6_15_0_0: flow_6_15_0_0 - 1000 edge_6_15_0_0 <= 0
 inactive_no_flow_7_5_0_0: flow_7_5_0_0 - 1000 edge_7_5_0_0 <= 0
 inactive_no_flow_7_6_0_0: flow_7_6_0_0 - 1000 edge_7_6_0_0 <= 0
 inactive_no_flow_7_8_0_0: flow_7_8_0_0 - 1000 edge_7_8_0_0 <= 0
 inactive_no_flow_7_9_0_0: flow_7_9_0_0 - 1000 edge_7_9_0_0 <= 0
 inactive_no_flow_8_2_0_0: flow_8_2_0_0 - 1000 edge_8_2_0_0 <= 0
 inactive_no_flow_8_3_0_0: flow_8_3_0_0 - 1000 edge_8_3_0_0 <= 0
 inactive_no_flow_8_4_0_0: flow_8_4_0_0 - 1000 edge_8_4_0_0 <= 0
 inactive_no_flow_8_5_0_0: flow_8_5_0_0 - 1000 edge_8_5_0_0 <= 0
 inactive_no_flow_8_6_0_0: flow_8_6_0_0 - 1000 edge_8_6_0_0 <= 0
 inactive_no_flow_8_7_0_0: flow_8_7_0_0 - 1000 edge_8_7_0_0 <= 0
 inactive_no_flow_8_9_0_0: flow_8_9_0_0 - 1000 edge_8_9_0_0 <= 0
 inactive_no_flow_8_10_0_0: flow_8_10_0_0 - 1000 edge_8_10_0_0 <= 0
 inactive_no_flow_8_11_0_0: flow_8_11_0_0 - 1000 edge_8_11_0_0 <= 0
 inactive_no_flow_8_13_0_0: flow_8_13_0_0 - 1000 edge_8_13_0_0 <= 0
 inactive_no_flow_8_14_0_0: flow_8_14_0_0 - 1000 edge_8_14_0_0 <= 0
 inactive_no_flow_8_15_0_0: flow_8_15_0_0 - 1000 edge_8_15_0_0 <= 0
 inactive_no_flow_9_7_0_0: flow_9_7_0_0 - 1000 edge_9_7_0_0 <= 0
 inactive_no_flow_9_10_0_0: flow_9_10_0_0 - 1000 edge_9_10_0_0 <= 0
 inactive_no_flow_9_13_0_0: flow_9_13_0_0 - 1000 edge_9_13_0_0 <= 0
 inactive_no_flow_9_14_0_0: flow_9_14_0_0 - 1000 edge_9_14_0_0 <= 0
 inactive_no_flow_9_15_0_0: flow_9_15_0_0 - 1000 edge_9_15_0_0 <= 0
 inactive_no_flow_10_13_0_0: flow_10_13_0_0 - 1000 edge_10_13_0_0 <= 0
 inactive_no_flow_11_1_0_0: flow_11_1_0_0 - 1000 edge_11_1_0_0 <= 0
 inactive_no_flow_11_2_0_0: flow_11_2_0_0 - 1000 edge_11_2_0_0 <= 0
 inactive_no_flow_11_3_0_0: flow_11_3_0_0 - 1000 edge_11_3_0_0 <= 0
 inactive_no_flow_11_4_0_0: flow_11_4_0_0 - 1000 edge_11_4_0_0 <= 0
 inactive_no_flow_11_6_0_0: flow_11_6_0_0 - 1000 edge_11_6_0_0 <= 0
 inactive_no_flow_11_8_0_0: flow_11_8_0_0 - 1000 edge_11_8_0_0 <= 0
 inactive_no_flow_11_13_0_0: flow_11_13_0_0 - 1000 edge_11_13_0_0 <= 0
 inactive_no_flow_13_6_0_0: flow_13_6_0_0 - 1000 edge_13_6_0_0 <= 0
 inactive_no_flow_13_9_0_0: flow_13_9_0_0 - 1000 edge_13_9_0_0 <= 0
 inactive_no_flow_13_10_0_0: flow_13_10_0_0 - 1000 edge_13_10_0_0 <= 0
 inactive_no_flow_13_14_0_0: flow_13_14_0_0 - 1000 edge_13_14_0_0 <= 0
 inactive_no_flow_13_15_0_0: flow_13_15_0_0 - 1000 edge_13_15_0_0 <= 0
 inactive_no_flow_14_2_0_0: flow_14_2_0_0 - 1000 edge_14_2_0_0 <= 0
 inactive_no_flow_14_5_0_0: flow_14_5_0_0 - 1000 edge_14_5_0_0 <= 0
 inactive_no_flow_14_6_0_0: flow_14_6_0_0 - 1000 edge_14_6_0_0 <= 0
 inactive_no_flow_14_7_0_0: flow_14_7_0_0 - 1000 edge_14_7_0_0 <= 0
 inactive_no_flow_14_9_0_0: flow_14_9_0_0 - 1000 edge_14_9_0_0 <= 0
 inactive_no_flow_14_10_0_0: flow_14_10_0_0 - 1000 edge_14_10_0_0 <= 0
 inactive_no_flow_14_11_0_0: flow_14_11_0_0 - 1000 edge_14_11_0_0 <= 0
 inactive_no_flow_14_13_0_0: flow_14_13_0_0 - 1000 edge_14_13_0_0 <= 0
 inactive_no_flow_14_15_0_0: flow_14_15_0_0 - 1000 edge_14_15_0_0 <= 0
 inactive_no_flow_15_13_0_0: flow_15_13_0_0 - 1000 edge_15_13_0_0 <= 0
 inactive_no_flow_15_14_0_0: flow_15_14_0_0 - 1000 edge_15_14_0_0 <= 0
Bounds
Binaries
 edge_0_1_0_0 edge_0_2_0_0 edge_0_3_0_0 edge_0_6_0_0 edge_0_8_0_0
 edge_0_11_0_0 edge_1_2_0_0 edge_1_3_0_0 edge_1_4_0_0 edge_1_6_0_0
 edge_1_8_0_0 edge_1_11_0_0 edge_1_13_0_0 edge_1_15_0_0 edge_2_1_0_0
 edge_2_3_0_0 edge_2_4_0_0 edge_2_5_0_0 edge_2_6_0_0 edge_2_11_0_0
 edge_2_15_0_0 edge_3_1_0_0 edge_3_2_0_0 edge_3_4_0_0 edge_3_5_0_0
 edge_3_6_0_0 edge_3_7_0_0 edge_3_8_0_0 edge_3_9_0_0 edge_3_10_0_0
 edge_3_11_0_0 edge_3_13_0_0 edge_3_14_0_0 edge_3_15_0_0 edge_4_2_0_0
 edge_4_3_0_0 edge_4_8_0_0 edge_5_6_0_0 edge_5_7_0_0 edge_5_8_0_0
 edge_6_1_0_0 edge_6_2_0_0 edge_6_3_0_0 edge_6_4_0_0 edge_6_5_0_0
 edge_6_7_0_0 edge_6_8_0_0 edge_6_11_0_0 edge_6_13_0_0 edge_6_15_0_0
 edge_7_5_0_0 edge_7_6_0_0 edge_7_8_0_0 edge_7_9_0_0 edge_8_2_0_0
 edge_8_3_0_0 edge_8_4_0_0 edge_8_5_0_0 edge_8_6_0_0 edge_8_7_0_0
 edge_8_9_0_0 edge_8_10_0_0 edge_8_11_0_0 edge_8_13_0_0 edge_8_14_0_0
 edge_8_15_0_0 edge_9_7_0_0 edge_9_10_0_0 edge_9_13_0_0 edge_9_14_0_0
 edge_9_15_0_0 edge_10_13_0_0 edge_11_1_0_0 edge_11_2_0_0 edge_11_3_0_0
 edge_11_4_0_0 edge_11_6_0_0 edge_11_8_0_0 edge_11_13_0_0 edge_13_6_0_0
 edge_13_9_0_0 edge_13_10_0_0 edge_13_14_0_0 edge_13_15_0_0 edge_14_2_0_0
 edge_14_5_0_0 edge_14_6_0_0 edge_14_7_0_0 edge_14_9_0_0 edge_14_10_0_0
 edge_14_11_0_0 edge_14_13_0_0 edge_14_15_0_0 edge_15_13_0_0 edge_15_14_0_0
End
